objective value:                                   -9
t_n_6                                               1 	(obj:-1)
t_n_188                                             1 	(obj:-1)
t_n_213                                             1 	(obj:-1)
t_n_325                                             1 	(obj:-1)
t_n_447                                             1 	(obj:-1)
t_n_499                                             1 	(obj:-1)
t_n_745                                             1 	(obj:-1)
t_n_818                                             1 	(obj:-1)
t_n_829                                             1 	(obj:-1)
